911544
10 21 5744
21 7 17005
7 36 11794
36 29 16895
29 38 745
38 23 7449
23 34 31609
34 12 39715
12 33 3967
33 26 15458
26 5 32088
5 32 3290
32 20 24202
20 30 17244
30 37 941
37 39 6534
39 25 4093
25 31 7859
31 28 12751
28 13 6411
13 22 39393
22 24 45980
24 4 52566
4 19 26533
19 40 13572
40 18 18404
18 27 12606
27 2 15288
2 16 57771
16 3 71701
3 14 30026
14 17 42391
17 15 45489
15 8 26227
8 9 54349
9 6 47658
6 1 25297
1 11 8732
11 35 5412
35 10 6355
